\ENCODING=ISO-8859-1
\Problem name: neos-1425699.mps

Maximize
 R0090: -34085169 C0001            + 23731198 C0002            + 33991521 C0003            -6414096 C0004            -36886522 C0005            + 24390206 C0006            + 69616974 C0007            -63131396 C0008            -55423922 C0009            + 834058 C0010            -74200945 C0011            -37717073 C0012            + 29085900 C0013            -32779502 C0014            -30840430 C0015            -67868039 C0016            -16081042 C0017            + 14581376 C0018            -11947950 C0019            + 20734162 C0020            + 42790500 C0021            + 65550529 C0022            + 23874071 C0023            + 35950409 C0024            + 34653879 C0025            -8105978 C0026            -72698435 C0027            + 62304580 C0028            -30489656 C0029            + 63892356 C0030            -45108945 C0031            -37058459 C0032            -34860081 C0033            + 16398942 C0034            + 31527446 C0035            + 3253397 C0036            -34210853 C0037            + 26144419 C0038            -32361633 C0039            -14634775 C0040            + 54494844 C0041            + 70953789 C0042            + 22648153 C0043            + 8580743 C0044            + 65690654 C0045            + 19324089 C0046            + 15712704 C0047            -25390389 C0048            -41094536 C0049            -71235247 C0050            + 22860139 C0051            + 29212330 C0052            + 21831648 C0053            -28265791 C0054            -9837261 C0055            -65998107 C0056            -8855402 C0057            -7535696 C0058            + 71306473 C0059            -11828692 C0060            -18643341 C0061            + 53713894 C0062            + 26112850 C0063            + 21496578 C0064            -4887165 C0065            -64843339 C0066            + 52266341 C0067            + 35901982 C0068            -11182554 C0069            -55095293 C0070            -53732793 C0071            -31687711 C0072            + 43374863 C0073            -3568274 C0074            + 51893032 C0075            + 34065516 C0076            -59244186 C0077            -54877899 C0078            + 36191493 C0079            -72822355 C0080            + 51403222 C0081            -15948369 C0082            + 31389975 C0083            -49248765 C0084            -16697794 C0085            -53447287 C0086            -40246872 C0087            + 1963170 C0088            -33466617 C0089            + 58575968 C0090            + 65134479 C0091            + 22890042 C0092            + 37289861 C0093            + 16247328 C0094            + 71902986 C0095            -42597304 C0096            -21079645 C0097            + 49169326 C0098            + 68304678 C0099            + 42737801 C0100            + 21590400 C0101            + 42088251 C0102            -63949910 C0103            -57518372 C0104            -36480024 C0105 
Subject To
 R0001: C0026 + C0027 + C0028 + C0029 + C0030 <= 90028
 R0002: C0031 + C0032 + C0033 + C0034 + C0035 <= 105770
 R0003: - 195798 C0021 + C0026 + C0031 <= 0
 R0004: - 195798 C0022 + C0027 + C0032 <= 0
 R0005: - 195798 C0023 + C0028 + C0033 <= 0
 R0006: - 195798 C0024 + C0029 + C0034 <= 0
 R0007: - 195798 C0025 + C0030 + C0035 <= 0
 R0008: C0036 + C0050 + C0064 + C0078 + C0092 >= 5060.92
 R0009: C0036 + C0050 + C0064 + C0078 + C0092 >= 1394.72
 R0010: C0036 + C0050 + C0064 + C0078 + C0092 >= 6348.92
 R0011: C0036 + C0050 + C0064 + C0078 + C0092 >= 629.28
 R0012: C0037 + C0051 + C0065 + C0079 + C0093 >= 3102.24
 R0013: C0037 + C0051 + C0065 + C0079 + C0093 >= 4012.12
 R0014: C0037 + C0051 + C0065 + C0079 + C0093 >= 3874.12
 R0015: C0037 + C0051 + C0065 + C0079 + C0093 >= 2482.16
 R0016: C0038 + C0052 + C0066 + C0080 + C0094 >= 5662.6
 R0017: C0038 + C0052 + C0066 + C0080 + C0094 >= 1827.12
 R0018: C0038 + C0052 + C0066 + C0080 + C0094 >= 5434.44
 R0019: C0038 + C0052 + C0066 + C0080 + C0094 >= 2624.76
 R0020: C0039 + C0053 + C0067 + C0081 + C0095 >= 1394.72
 R0021: C0039 + C0053 + C0067 + C0081 + C0095 >= 4090.32
 R0022: C0039 + C0053 + C0067 + C0081 + C0095 >= 3656.08
 R0023: C0039 + C0053 + C0067 + C0081 + C0095 >= 6035.2
 R0024: C0040 + C0054 + C0068 + C0082 + C0096 >= 3102.24
 R0025: C0040 + C0054 + C0068 + C0082 + C0096 >= 559.36
 R0026: C0040 + C0054 + C0068 + C0082 + C0096 >= 4986.4
 R0027: C0040 + C0054 + C0068 + C0082 + C0096 >= 4637.72
 R0028: C0041 + C0055 + C0069 + C0083 + C0097 >= 5837.4
 R0029: C0041 + C0055 + C0069 + C0083 + C0097 >= 3451.84
 R0030: C0041 + C0055 + C0069 + C0083 + C0097 >= 2156.48
 R0031: C0041 + C0055 + C0069 + C0083 + C0097 >= 2555.76
 R0032: C0042 + C0056 + C0070 + C0084 + C0098 >= 6538.44
 R0033: C0042 + C0056 + C0070 + C0084 + C0098 >= 1391.04
 R0034: C0042 + C0056 + C0070 + C0084 + C0098 >= 1487.64
 R0035: C0042 + C0056 + C0070 + C0084 + C0098 >= 1808.72
 R0036: C0043 + C0057 + C0071 + C0085 + C0099 >= 950.36
 R0037: C0043 + C0057 + C0071 + C0085 + C0099 >= 6259.68
 R0038: C0043 + C0057 + C0071 + C0085 + C0099 >= 3992.8
 R0039: C0043 + C0057 + C0071 + C0085 + C0099 >= 5611.08
 R0040: C0044 + C0058 + C0072 + C0086 + C0100 >= 1763.64
 R0041: C0044 + C0058 + C0072 + C0086 + C0100 >= 3524.52
 R0042: C0044 + C0058 + C0072 + C0086 + C0100 >= 2320.24
 R0043: C0044 + C0058 + C0072 + C0086 + C0100 >= 6605.6
 R0044: C0045 + C0059 + C0073 + C0087 + C0101 >= 2128.88
 R0045: C0045 + C0059 + C0073 + C0087 + C0101 >= 6772.12
 R0046: C0045 + C0059 + C0073 + C0087 + C0101 >= 5324.04
 R0047: C0045 + C0059 + C0073 + C0087 + C0101 >= 6386.64
 R0048: C0046 + C0060 + C0074 + C0088 + C0102 >= 6059.12
 R0049: C0046 + C0060 + C0074 + C0088 + C0102 >= 2140.84
 R0050: C0046 + C0060 + C0074 + C0088 + C0102 >= 5864.08
 R0051: C0046 + C0060 + C0074 + C0088 + C0102 >= 6368.24
 R0052: C0047 + C0061 + C0075 + C0089 + C0103 >= 796.72
 R0053: C0047 + C0061 + C0075 + C0089 + C0103 >= 977.04
 R0054: C0047 + C0061 + C0075 + C0089 + C0103 >= 1076.4
 R0055: C0047 + C0061 + C0075 + C0089 + C0103 >= 1037.76
 R0056: C0048 + C0062 + C0076 + C0090 + C0104 >= 814.2
 R0057: C0048 + C0062 + C0076 + C0090 + C0104 >= 1130.68
 R0058: C0048 + C0062 + C0076 + C0090 + C0104 >= 921.84
 R0059: C0048 + C0062 + C0076 + C0090 + C0104 >= 1003.72
 R0060: C0049 + C0063 + C0077 + C0091 + C0105 >= 1382.76
 R0061: C0049 + C0063 + C0077 + C0091 + C0105 >= 700.12
 R0062: C0049 + C0063 + C0077 + C0091 + C0105 >= 690
 R0063: C0049 + C0063 + C0077 + C0091 + C0105 >= 1388.28
 R0064: C0026 + C0031 - C0036 - C0037 - C0038 - C0039 - C0040 - C0041 - C0042
        - C0043 - C0044 - C0045 - C0046 - C0047 - C0048 - C0049  = 0
 R0065: C0027 + C0032 - C0050 - C0051 - C0052 - C0053 - C0054 - C0055 - C0056
        - C0057 - C0058 - C0059 - C0060 - C0061 - C0062 - C0063  = 0
 R0066: C0028 + C0033 - C0064 - C0065 - C0066 - C0067 - C0068 - C0069 - C0070
        - C0071 - C0072 - C0073 - C0074 - C0075 - C0076 - C0077  = 0
 R0067: C0029 + C0034 - C0078 - C0079 - C0080 - C0081 - C0082 - C0083 - C0084
        - C0085 - C0086 - C0087 - C0088 - C0089 - C0090 - C0091  = 0
 R0068: C0030 + C0035 - C0092 - C0093 - C0094 - C0095 - C0096 - C0097 - C0098
        - C0099 - C0100 - C0101 - C0102 - C0103 - C0104 - C0105  = 0
 R0069: C0021 + C0022 + C0023 + C0024 + C0025  = 4
 R0070: - 4 C0001 + 2 C0026  = 0
 R0071: - 4 C0005 + 2 C0027  = 0
 R0072: - 4 C0009 + 2 C0028  = 0
 R0073: - 4 C0013 + 2 C0029  = 0
 R0074: - 4 C0017 + 2 C0030  = 0
 R0075: - 4 C0002 + 2 C0026  = 0
 R0076: - 4 C0006 + 2 C0027  = 0
 R0077: - 4 C0010 + 2 C0028  = 0
 R0078: - 4 C0014 + 2 C0029  = 0
 R0079: - 4 C0018 + 2 C0030  = 0
 R0080: - 4 C0003 + 2 C0031  = 0
 R0081: - 4 C0007 + 2 C0032  = 0
 R0082: - 4 C0011 + 2 C0033  = 0
 R0083: - 4 C0015 + 2 C0034  = 0
 R0084: - 4 C0019 + 2 C0035  = 0
 R0085: - 4 C0004 + 2 C0031  = 0
 R0086: - 4 C0008 + 2 C0032  = 0
 R0087: - 4 C0012 + 2 C0033  = 0
 R0088: - 4 C0016 + 2 C0034  = 0
 R0089: - 4 C0020 + 2 C0035  = 0
Bounds
 0 <= C0021 <= 1
 0 <= C0022 <= 1
 0 <= C0023 <= 1
 0 <= C0024 <= 1
 0 <= C0025 <= 1
 0 <= C0026 <= 90028
 0 <= C0027 <= 90028
 0 <= C0028 <= 90028
 0 <= C0029 <= 90028
 0 <= C0030 <= 90028
 0 <= C0031 <= 105770
 0 <= C0032 <= 105770
 0 <= C0033 <= 105770
 0 <= C0034 <= 105770
 0 <= C0035 <= 105770
 0 <= C0036 <= 195798
 0 <= C0037 <= 195798
 0 <= C0038 <= 195798
 0 <= C0039 <= 195798
 0 <= C0040 <= 195798
 0 <= C0041 <= 195798
 0 <= C0042 <= 195798
 0 <= C0043 <= 195798
 0 <= C0044 <= 195798
 0 <= C0045 <= 195798
 0 <= C0046 <= 195798
 0 <= C0047 <= 195798
 0 <= C0048 <= 195798
 0 <= C0049 <= 195798
 0 <= C0050 <= 195798
 0 <= C0051 <= 195798
 0 <= C0052 <= 195798
 0 <= C0053 <= 195798
 0 <= C0054 <= 195798
 0 <= C0055 <= 195798
 0 <= C0056 <= 195798
 0 <= C0057 <= 195798
 0 <= C0058 <= 195798
 0 <= C0059 <= 195798
 0 <= C0060 <= 195798
 0 <= C0061 <= 195798
 0 <= C0062 <= 195798
 0 <= C0063 <= 195798
 0 <= C0064 <= 195798
 0 <= C0065 <= 195798
 0 <= C0066 <= 195798
 0 <= C0067 <= 195798
 0 <= C0068 <= 195798
 0 <= C0069 <= 195798
 0 <= C0070 <= 195798
 0 <= C0071 <= 195798
 0 <= C0072 <= 195798
 0 <= C0073 <= 195798
 0 <= C0074 <= 195798
 0 <= C0075 <= 195798
 0 <= C0076 <= 195798
 0 <= C0077 <= 195798
 0 <= C0078 <= 195798
 0 <= C0079 <= 195798
 0 <= C0080 <= 195798
 0 <= C0081 <= 195798
 0 <= C0082 <= 195798
 0 <= C0083 <= 195798
 0 <= C0084 <= 195798
 0 <= C0085 <= 195798
 0 <= C0086 <= 195798
 0 <= C0087 <= 195798
 0 <= C0088 <= 195798
 0 <= C0089 <= 195798
 0 <= C0090 <= 195798
 0 <= C0091 <= 195798
 0 <= C0092 <= 195798
 0 <= C0093 <= 195798
 0 <= C0094 <= 195798
 0 <= C0095 <= 195798
 0 <= C0096 <= 195798
 0 <= C0097 <= 195798
 0 <= C0098 <= 195798
 0 <= C0099 <= 195798
 0 <= C0100 <= 195798
 0 <= C0101 <= 195798
 0 <= C0102 <= 195798
 0 <= C0103 <= 195798
 0 <= C0104 <= 195798
 0 <= C0105 <= 195798
Binaries
 C0021  C0022  C0023  C0024  C0025 
Generals
 C0026  C0027  C0028  C0029  C0030  C0031  C0032  C0033  C0034  C0035  C0036 
 C0037  C0038  C0039  C0040  C0041  C0042  C0043  C0044  C0045  C0046  C0047 
 C0048  C0049  C0050  C0051  C0052  C0053  C0054  C0055  C0056  C0057  C0058 
 C0059  C0060  C0061  C0062  C0063  C0064  C0065  C0066  C0067  C0068  C0069 
 C0070  C0071  C0072  C0073  C0074  C0075  C0076  C0077  C0078  C0079  C0080 
 C0081  C0082  C0083  C0084  C0085  C0086  C0087  C0088  C0089  C0090  C0091 
 C0092  C0093  C0094  C0095  C0096  C0097  C0098  C0099  C0100  C0101  C0102 
 C0103  C0104  C0105 
End
